(set-logic QF_LRA)
(declare-fun X0 () Real )
(declare-fun Y0 () Real )
(declare-fun X1 () Real )
(declare-fun Y1 () Real )
(declare-fun X2 () Real )
(declare-fun Y2 () Real )
(declare-fun X3 () Real )
(declare-fun Y3 () Real )
(declare-fun X4 () Real )
(declare-fun Y4 () Real )
(declare-fun X5 () Real )
(declare-fun Y5 () Real )
(declare-fun X6 () Real )
(declare-fun Y6 () Real )
(declare-fun X7 () Real )
(declare-fun Y7 () Real )
(declare-fun X8 () Real )
(declare-fun Y8 () Real )
(declare-fun X9 () Real )
(declare-fun Y9 () Real )
(declare-fun X10 () Real )
(declare-fun Y10 () Real )
(declare-fun X11 () Real )
(declare-fun Y11 () Real )
(declare-fun Z () Real )
(declare-fun k () Real )
(assert (let
(( $goal (>= Z k) ))
(let
((
$phi ( and 
( or ( <= ( + X0 53 ) X1 )  ( <= ( + X1 71 ) X0 )  ( <= ( + Y0 90 ) Y1 )  ( <= ( + Y1 96 ) Y0 )  )
( or ( <= ( + X0 53 ) X2 )  ( <= ( + X2 76 ) X0 )  ( <= ( + Y0 90 ) Y2 )  ( <= ( + Y2 100 ) Y0 )  )
( or ( <= ( + X0 53 ) X3 )  ( <= ( + X3 11 ) X0 )  ( <= ( + Y0 90 ) Y3 )  ( <= ( + Y3 13 ) Y0 )  )
( or ( <= ( + X0 53 ) X4 )  ( <= ( + X4 10 ) X0 )  ( <= ( + Y0 90 ) Y4 )  ( <= ( + Y4 10 ) Y0 )  )
( or ( <= ( + X0 53 ) X5 )  ( <= ( + X5 93 ) X0 )  ( <= ( + Y0 90 ) Y5 )  ( <= ( + Y5 58 ) Y0 )  )
( or ( <= ( + X0 53 ) X6 )  ( <= ( + X6 11 ) X0 )  ( <= ( + Y0 90 ) Y6 )  ( <= ( + Y6 25 ) Y0 )  )
( or ( <= ( + X0 53 ) X7 )  ( <= ( + X7 26 ) X0 )  ( <= ( + Y0 90 ) Y7 )  ( <= ( + Y7 90 ) Y0 )  )
( or ( <= ( + X0 53 ) X8 )  ( <= ( + X8 96 ) X0 )  ( <= ( + Y0 90 ) Y8 )  ( <= ( + Y8 14 ) Y0 )  )
( or ( <= ( + X0 53 ) X9 )  ( <= ( + X9 26 ) X0 )  ( <= ( + Y0 90 ) Y9 )  ( <= ( + Y9 7 ) Y0 )  )
( or ( <= ( + X0 53 ) X10 )  ( <= ( + X10 24 ) X0 )  ( <= ( + Y0 90 ) Y10 )  ( <= ( + Y10 92 ) Y0 )  )
( or ( <= ( + X0 53 ) X11 )  ( <= ( + X11 86 ) X0 )  ( <= ( + Y0 90 ) Y11 )  ( <= ( + Y11 78 ) Y0 )  )
( or ( <= ( + X1 71 ) X2 )  ( <= ( + X2 76 ) X1 )  ( <= ( + Y1 96 ) Y2 )  ( <= ( + Y2 100 ) Y1 )  )
( or ( <= ( + X1 71 ) X3 )  ( <= ( + X3 11 ) X1 )  ( <= ( + Y1 96 ) Y3 )  ( <= ( + Y3 13 ) Y1 )  )
( or ( <= ( + X1 71 ) X4 )  ( <= ( + X4 10 ) X1 )  ( <= ( + Y1 96 ) Y4 )  ( <= ( + Y4 10 ) Y1 )  )
( or ( <= ( + X1 71 ) X5 )  ( <= ( + X5 93 ) X1 )  ( <= ( + Y1 96 ) Y5 )  ( <= ( + Y5 58 ) Y1 )  )
( or ( <= ( + X1 71 ) X6 )  ( <= ( + X6 11 ) X1 )  ( <= ( + Y1 96 ) Y6 )  ( <= ( + Y6 25 ) Y1 )  )
( or ( <= ( + X1 71 ) X7 )  ( <= ( + X7 26 ) X1 )  ( <= ( + Y1 96 ) Y7 )  ( <= ( + Y7 90 ) Y1 )  )
( or ( <= ( + X1 71 ) X8 )  ( <= ( + X8 96 ) X1 )  ( <= ( + Y1 96 ) Y8 )  ( <= ( + Y8 14 ) Y1 )  )
( or ( <= ( + X1 71 ) X9 )  ( <= ( + X9 26 ) X1 )  ( <= ( + Y1 96 ) Y9 )  ( <= ( + Y9 7 ) Y1 )  )
( or ( <= ( + X1 71 ) X10 )  ( <= ( + X10 24 ) X1 )  ( <= ( + Y1 96 ) Y10 )  ( <= ( + Y10 92 ) Y1 )  )
( or ( <= ( + X1 71 ) X11 )  ( <= ( + X11 86 ) X1 )  ( <= ( + Y1 96 ) Y11 )  ( <= ( + Y11 78 ) Y1 )  )
( or ( <= ( + X2 76 ) X3 )  ( <= ( + X3 11 ) X2 )  ( <= ( + Y2 100 ) Y3 )  ( <= ( + Y3 13 ) Y2 )  )
( or ( <= ( + X2 76 ) X4 )  ( <= ( + X4 10 ) X2 )  ( <= ( + Y2 100 ) Y4 )  ( <= ( + Y4 10 ) Y2 )  )
( or ( <= ( + X2 76 ) X5 )  ( <= ( + X5 93 ) X2 )  ( <= ( + Y2 100 ) Y5 )  ( <= ( + Y5 58 ) Y2 )  )
( or ( <= ( + X2 76 ) X6 )  ( <= ( + X6 11 ) X2 )  ( <= ( + Y2 100 ) Y6 )  ( <= ( + Y6 25 ) Y2 )  )
( or ( <= ( + X2 76 ) X7 )  ( <= ( + X7 26 ) X2 )  ( <= ( + Y2 100 ) Y7 )  ( <= ( + Y7 90 ) Y2 )  )
( or ( <= ( + X2 76 ) X8 )  ( <= ( + X8 96 ) X2 )  ( <= ( + Y2 100 ) Y8 )  ( <= ( + Y8 14 ) Y2 )  )
( or ( <= ( + X2 76 ) X9 )  ( <= ( + X9 26 ) X2 )  ( <= ( + Y2 100 ) Y9 )  ( <= ( + Y9 7 ) Y2 )  )
( or ( <= ( + X2 76 ) X10 )  ( <= ( + X10 24 ) X2 )  ( <= ( + Y2 100 ) Y10 )  ( <= ( + Y10 92 ) Y2 )  )
( or ( <= ( + X2 76 ) X11 )  ( <= ( + X11 86 ) X2 )  ( <= ( + Y2 100 ) Y11 )  ( <= ( + Y11 78 ) Y2 )  )
( or ( <= ( + X3 11 ) X4 )  ( <= ( + X4 10 ) X3 )  ( <= ( + Y3 13 ) Y4 )  ( <= ( + Y4 10 ) Y3 )  )
( or ( <= ( + X3 11 ) X5 )  ( <= ( + X5 93 ) X3 )  ( <= ( + Y3 13 ) Y5 )  ( <= ( + Y5 58 ) Y3 )  )
( or ( <= ( + X3 11 ) X6 )  ( <= ( + X6 11 ) X3 )  ( <= ( + Y3 13 ) Y6 )  ( <= ( + Y6 25 ) Y3 )  )
( or ( <= ( + X3 11 ) X7 )  ( <= ( + X7 26 ) X3 )  ( <= ( + Y3 13 ) Y7 )  ( <= ( + Y7 90 ) Y3 )  )
( or ( <= ( + X3 11 ) X8 )  ( <= ( + X8 96 ) X3 )  ( <= ( + Y3 13 ) Y8 )  ( <= ( + Y8 14 ) Y3 )  )
( or ( <= ( + X3 11 ) X9 )  ( <= ( + X9 26 ) X3 )  ( <= ( + Y3 13 ) Y9 )  ( <= ( + Y9 7 ) Y3 )  )
( or ( <= ( + X3 11 ) X10 )  ( <= ( + X10 24 ) X3 )  ( <= ( + Y3 13 ) Y10 )  ( <= ( + Y10 92 ) Y3 )  )
( or ( <= ( + X3 11 ) X11 )  ( <= ( + X11 86 ) X3 )  ( <= ( + Y3 13 ) Y11 )  ( <= ( + Y11 78 ) Y3 )  )
( or ( <= ( + X4 10 ) X5 )  ( <= ( + X5 93 ) X4 )  ( <= ( + Y4 10 ) Y5 )  ( <= ( + Y5 58 ) Y4 )  )
( or ( <= ( + X4 10 ) X6 )  ( <= ( + X6 11 ) X4 )  ( <= ( + Y4 10 ) Y6 )  ( <= ( + Y6 25 ) Y4 )  )
( or ( <= ( + X4 10 ) X7 )  ( <= ( + X7 26 ) X4 )  ( <= ( + Y4 10 ) Y7 )  ( <= ( + Y7 90 ) Y4 )  )
( or ( <= ( + X4 10 ) X8 )  ( <= ( + X8 96 ) X4 )  ( <= ( + Y4 10 ) Y8 )  ( <= ( + Y8 14 ) Y4 )  )
( or ( <= ( + X4 10 ) X9 )  ( <= ( + X9 26 ) X4 )  ( <= ( + Y4 10 ) Y9 )  ( <= ( + Y9 7 ) Y4 )  )
( or ( <= ( + X4 10 ) X10 )  ( <= ( + X10 24 ) X4 )  ( <= ( + Y4 10 ) Y10 )  ( <= ( + Y10 92 ) Y4 )  )
( or ( <= ( + X4 10 ) X11 )  ( <= ( + X11 86 ) X4 )  ( <= ( + Y4 10 ) Y11 )  ( <= ( + Y11 78 ) Y4 )  )
( or ( <= ( + X5 93 ) X6 )  ( <= ( + X6 11 ) X5 )  ( <= ( + Y5 58 ) Y6 )  ( <= ( + Y6 25 ) Y5 )  )
( or ( <= ( + X5 93 ) X7 )  ( <= ( + X7 26 ) X5 )  ( <= ( + Y5 58 ) Y7 )  ( <= ( + Y7 90 ) Y5 )  )
( or ( <= ( + X5 93 ) X8 )  ( <= ( + X8 96 ) X5 )  ( <= ( + Y5 58 ) Y8 )  ( <= ( + Y8 14 ) Y5 )  )
( or ( <= ( + X5 93 ) X9 )  ( <= ( + X9 26 ) X5 )  ( <= ( + Y5 58 ) Y9 )  ( <= ( + Y9 7 ) Y5 )  )
( or ( <= ( + X5 93 ) X10 )  ( <= ( + X10 24 ) X5 )  ( <= ( + Y5 58 ) Y10 )  ( <= ( + Y10 92 ) Y5 )  )
( or ( <= ( + X5 93 ) X11 )  ( <= ( + X11 86 ) X5 )  ( <= ( + Y5 58 ) Y11 )  ( <= ( + Y11 78 ) Y5 )  )
( or ( <= ( + X6 11 ) X7 )  ( <= ( + X7 26 ) X6 )  ( <= ( + Y6 25 ) Y7 )  ( <= ( + Y7 90 ) Y6 )  )
( or ( <= ( + X6 11 ) X8 )  ( <= ( + X8 96 ) X6 )  ( <= ( + Y6 25 ) Y8 )  ( <= ( + Y8 14 ) Y6 )  )
( or ( <= ( + X6 11 ) X9 )  ( <= ( + X9 26 ) X6 )  ( <= ( + Y6 25 ) Y9 )  ( <= ( + Y9 7 ) Y6 )  )
( or ( <= ( + X6 11 ) X10 )  ( <= ( + X10 24 ) X6 )  ( <= ( + Y6 25 ) Y10 )  ( <= ( + Y10 92 ) Y6 )  )
( or ( <= ( + X6 11 ) X11 )  ( <= ( + X11 86 ) X6 )  ( <= ( + Y6 25 ) Y11 )  ( <= ( + Y11 78 ) Y6 )  )
( or ( <= ( + X7 26 ) X8 )  ( <= ( + X8 96 ) X7 )  ( <= ( + Y7 90 ) Y8 )  ( <= ( + Y8 14 ) Y7 )  )
( or ( <= ( + X7 26 ) X9 )  ( <= ( + X9 26 ) X7 )  ( <= ( + Y7 90 ) Y9 )  ( <= ( + Y9 7 ) Y7 )  )
( or ( <= ( + X7 26 ) X10 )  ( <= ( + X10 24 ) X7 )  ( <= ( + Y7 90 ) Y10 )  ( <= ( + Y10 92 ) Y7 )  )
( or ( <= ( + X7 26 ) X11 )  ( <= ( + X11 86 ) X7 )  ( <= ( + Y7 90 ) Y11 )  ( <= ( + Y11 78 ) Y7 )  )
( or ( <= ( + X8 96 ) X9 )  ( <= ( + X9 26 ) X8 )  ( <= ( + Y8 14 ) Y9 )  ( <= ( + Y9 7 ) Y8 )  )
( or ( <= ( + X8 96 ) X10 )  ( <= ( + X10 24 ) X8 )  ( <= ( + Y8 14 ) Y10 )  ( <= ( + Y10 92 ) Y8 )  )
( or ( <= ( + X8 96 ) X11 )  ( <= ( + X11 86 ) X8 )  ( <= ( + Y8 14 ) Y11 )  ( <= ( + Y11 78 ) Y8 )  )
( or ( <= ( + X9 26 ) X10 )  ( <= ( + X10 24 ) X9 )  ( <= ( + Y9 7 ) Y10 )  ( <= ( + Y10 92 ) Y9 )  )
( or ( <= ( + X9 26 ) X11 )  ( <= ( + X11 86 ) X9 )  ( <= ( + Y9 7 ) Y11 )  ( <= ( + Y11 78 ) Y9 )  )
( or ( <= ( + X10 24 ) X11 )  ( <= ( + X11 86 ) X10 )  ( <= ( + Y10 92 ) Y11 )  ( <= ( + Y11 78 ) Y10 )  )
( >= X0 0)
( <= ( + X0 53) Z)
( >= Y0 0)
( <= ( + Y0 90 ) 173)
( >= X1 0)
( <= ( + X1 71) Z)
( >= Y1 0)
( <= ( + Y1 96 ) 173)
( >= X2 0)
( <= ( + X2 76) Z)
( >= Y2 0)
( <= ( + Y2 100 ) 173)
( >= X3 0)
( <= ( + X3 11) Z)
( >= Y3 0)
( <= ( + Y3 13 ) 173)
( >= X4 0)
( <= ( + X4 10) Z)
( >= Y4 0)
( <= ( + Y4 10 ) 173)
( >= X5 0)
( <= ( + X5 93) Z)
( >= Y5 0)
( <= ( + Y5 58 ) 173)
( >= X6 0)
( <= ( + X6 11) Z)
( >= Y6 0)
( <= ( + Y6 25 ) 173)
( >= X7 0)
( <= ( + X7 26) Z)
( >= Y7 0)
( <= ( + Y7 90 ) 173)
( >= X8 0)
( <= ( + X8 96) Z)
( >= Y8 0)
( <= ( + Y8 14 ) 173)
( >= X9 0)
( <= ( + X9 26) Z)
( >= Y9 0)
( <= ( + Y9 7 ) 173)
( >= X10 0)
( <= ( + X10 24) Z)
( >= Y10 0)
( <= ( + Y10 92 ) 173)
( >= X11 0)
( <= ( + X11 86) Z)
( >= Y11 0)
( <= ( + Y11 78 ) 173)
) )
)(=> $phi $goal))))